Reading model...
...model read.
creating competitive generators file...
...competitive generators recorded.
Loading data...
.. real-time data read.
Compiling instance...
...instance created.
Creating Offer Mitigation (model will solve as dispatch if TRUE)...
...storage offer mitigation file created
Solving...

Welcome to IBM(R) ILOG(R) CPLEX(R) Interactive Optimizer 12.9.0.0
  with Simplex, Mixed Integer & Barrier Optimizers
5725-A06 5725-A29 5724-Y48 5724-Y49 5724-Y54 5724-Y55 5655-Y21
Copyright IBM Corp. 1988, 2019.  All Rights Reserved.

Type 'help' for a list of available commands.
Type 'help' followed by a command name for more
information on commands.

CPLEX> Logfile 'cplex.log' closed.
Logfile 'C:\Users\llavin\Desktop\test715\logs\tmpub6026s_.cplex.log' open.
CPLEX> New value for parallel optimization mode: -1
CPLEX> New value for mixed integer optimality gap tolerance: 0.001
CPLEX> New value for deterministic time limit in ticks: 100000
CPLEX> Problem 'C:\Users\llavin\Desktop\test715\logs\tmpduqfio00.pyomo.lp' read.
Read time = 0.11 sec. (6.12 ticks)
CPLEX> Problem name         : C:\Users\llavin\Desktop\test715\logs\tmpduqfio00.pyomo.lp
Objective sense      : Minimize
Variables            :   51733  [Nneg: 1,  Box: 42900,  Free: 8832]
Objective nonzeros   :    4992
Linear constraints   :   54776  [Less: 27829,  Greater: 8832,  Equal: 18115]
  Nonzeros           :  173100
  RHS nonzeros       :   23715

Variables            : Min LB: -5000.000        Max UB: 1000000.       
Objective nonzeros   : Min   : 15.73158         Max   : 124.0997       
Linear constraints   :
  Nonzeros           : Min   : 0.6893086        Max   : 390.6461       
  RHS nonzeros       : Min   : 2.500000e-07     Max   : 5000.000       
CPLEX> CPXPARAM_Parallel                                -1
CPXPARAM_DetTimeLimit                            100000
CPXPARAM_MIP_Tolerances_MIPGap                   0.001
Parallel mode: opportunistic, using up to 32 threads for concurrent optimization.
Tried aggregator 1 time.
LP Presolve eliminated 42689 rows and 31094 columns.
Aggregator did 1633 substitutions.
Reduced LP has 10454 rows, 19006 columns, and 59647 nonzeros.
Presolve time = 0.11 sec. (59.84 ticks)
Symmetry aggregator did 11479 additional substitutions.
Initializing dual steep norms . . .

Iteration log . . .
Iteration:     1   Dual objective     =             0.000000
Perturbation started.
Iteration:   101   Dual objective     =             0.000000
Iteration:   397   Dual objective     =            63.396324
Iteration:   739   Dual objective     =           110.062324
Iteration:  1056   Dual objective     =           115.337392
Iteration:  1351   Dual objective     =           115.341873
Iteration:  1597   Dual objective     =           115.344602
Iteration:  1854   Dual objective     =           115.347356
Iteration:  2122   Dual objective     =           115.351021
Removing perturbation.

Dual crossover.
  Dual:  Fixed no variables.
  Primal:  Fixed no variables.

Dual simplex solved model.


Dual simplex - Optimal:  Objective =  0.0000000000e+00
Solution time =    0.27 sec.  Iterations = 2453 (0)
Deterministic time = 150.24 ticks  (566.95 ticks/sec)

CPLEX> Solution written to file 'C:\Users\llavin\Desktop\test715\logs\tmpf9kvio7u.cplex.sol'.
CPLEX> Exporting results... 
